Minimize
  obj: x0 + x1 + x2 + x3 + x4 + x5

Subject To
  c0: x0 + x4 + x5 = 41
  c1: x0 + x1 + x2 = 30
  c2: x1 + x2 + x4 = 16
  c3: x0 + x1 + x2 + x3 + x4 = 52
  c4: x5 = 17
  c5: x0 + x1 + x3 + x5 = 64
  c6: x0 + x1 + x4 = 35

Bounds
  x0 >= 0
  x1 >= 0
  x2 >= 0
  x3 >= 0
  x4 >= 0
  x5 >= 0

Generals
  x0 x1 x2 x3 x4 x5

End
